
Gurobi 7.5.2 (mac64, Python) logging started Sun Sep 23 04:25:52 2018

Academic license - for non-commercial use only
Optimize a model with 16 rows, 64 columns and 128 nonzeros
Variable types: 0 continuous, 64 integer (64 binary)
Coefficient statistics:
  Matrix range     [1e+00, 1e+00]
  Objective range  [2e+00, 1e+07]
  Bounds range     [1e+00, 1e+00]
  RHS range        [1e+00, 1e+00]
Found heuristic solution: objective 5030554.0000
Presolve removed 0 rows and 3 columns
Presolve time: 0.01s
Presolved: 16 rows, 61 columns, 122 nonzeros
Variable types: 0 continuous, 61 integer (61 binary)

Root relaxation: objective 1.003536e+07, 18 iterations, 0.01 seconds

    Nodes    |    Current Node    |     Objective Bounds      |     Work
 Expl Unexpl |  Obj  Depth IntInf | Incumbent    BestBd   Gap | It/Node Time

*    0     0               0    1.003536e+07 1.0035e+07 -0.00%     -    0s

Explored 0 nodes (18 simplex iterations) in 0.14 seconds
Thread count was 4 (of 4 available processors)

Solution count 2: 1.00354e+07 5.03055e+06 

Optimal solution found (tolerance 1.00e-04)
Best objective 1.003535500000e+07, best bound 1.003535500000e+07, gap 0.0000%
Optimize a model with 16 rows, 64 columns and 128 nonzeros
Variable types: 0 continuous, 64 integer (64 binary)
Coefficient statistics:
  Matrix range     [1e+00, 1e+00]
  Objective range  [1e+02, 1e+07]
  Bounds range     [1e+00, 1e+00]
  RHS range        [1e+00, 1e+00]
Found heuristic solution: objective 2.000090e+07
Presolve time: 0.00s
Presolved: 16 rows, 64 columns, 128 nonzeros
Variable types: 0 continuous, 64 integer (64 binary)

Root relaxation: cutoff, 24 iterations, 0.00 seconds

    Nodes    |    Current Node    |     Objective Bounds      |     Work
 Expl Unexpl |  Obj  Depth IntInf | Incumbent    BestBd   Gap | It/Node Time

     0     0     cutoff    0      2.0001e+07 2.0001e+07 -0.00%     -    0s

Explored 0 nodes (24 simplex iterations) in 0.11 seconds
Thread count was 4 (of 4 available processors)

Solution count 1: 2.00009e+07 

Optimal solution found (tolerance 1.00e-04)
Best objective 2.000090000000e+07, best bound 2.000090000000e+07, gap 0.0000%

Gurobi 7.5.2 (mac64, Python) logging started Sun Sep 23 10:13:48 2018

Academic license - for non-commercial use only
Optimize a model with 16 rows, 64 columns and 128 nonzeros
Variable types: 0 continuous, 64 integer (64 binary)
Coefficient statistics:
  Matrix range     [1e+00, 1e+00]
  Objective range  [3e+03, 1e+07]
  Bounds range     [1e+00, 1e+00]
  RHS range        [1e+00, 1e+00]
Found heuristic solution: objective 6482602.0000
Presolve time: 0.01s
Presolved: 16 rows, 64 columns, 128 nonzeros
Variable types: 0 continuous, 64 integer (64 binary)

Root relaxation: objective 2.076020e+07, 29 iterations, 0.00 seconds

    Nodes    |    Current Node    |     Objective Bounds      |     Work
 Expl Unexpl |  Obj  Depth IntInf | Incumbent    BestBd   Gap | It/Node Time

*    0     0               0    2.076020e+07 2.0760e+07 -0.00%     -    0s

Explored 0 nodes (29 simplex iterations) in 0.08 seconds
Thread count was 4 (of 4 available processors)

Solution count 2: 2.07602e+07 6.4826e+06 

Optimal solution found (tolerance 1.00e-04)
Best objective 2.076020200000e+07, best bound 2.076020200000e+07, gap 0.0000%
Optimize a model with 16 rows, 64 columns and 128 nonzeros
Variable types: 0 continuous, 64 integer (64 binary)
Coefficient statistics:
  Matrix range     [1e+00, 1e+00]
  Objective range  [1e+02, 1e+07]
  Bounds range     [1e+00, 1e+00]
  RHS range        [1e+00, 1e+00]
Found heuristic solution: objective 1.500095e+07
Presolve time: 0.00s
Presolved: 16 rows, 64 columns, 128 nonzeros
Variable types: 0 continuous, 64 integer (64 binary)

Root relaxation: objective 2.000090e+07, 26 iterations, 0.00 seconds

    Nodes    |    Current Node    |     Objective Bounds      |     Work
 Expl Unexpl |  Obj  Depth IntInf | Incumbent    BestBd   Gap | It/Node Time

*    0     0               0    2.000090e+07 2.0001e+07 -0.00%     -    0s

Explored 0 nodes (26 simplex iterations) in 0.06 seconds
Thread count was 4 (of 4 available processors)

Solution count 2: 2.00009e+07 1.5001e+07 

Optimal solution found (tolerance 1.00e-04)
Best objective 2.000090000000e+07, best bound 2.000090000000e+07, gap 0.0000%
Optimize a model with 16 rows, 64 columns and 128 nonzeros
Variable types: 0 continuous, 64 integer (64 binary)
Coefficient statistics:
  Matrix range     [1e+00, 1e+00]
  Objective range  [1e+03, 2e+07]
  Bounds range     [1e+00, 1e+00]
  RHS range        [1e+00, 1e+00]
Found heuristic solution: objective 4.525400e+07
Presolve time: 0.01s
Presolved: 16 rows, 64 columns, 128 nonzeros
Variable types: 0 continuous, 64 integer (64 binary)

Root relaxation: cutoff, 11 iterations, 0.07 seconds

    Nodes    |    Current Node    |     Objective Bounds      |     Work
 Expl Unexpl |  Obj  Depth IntInf | Incumbent    BestBd   Gap | It/Node Time

     0     0     cutoff    0      4.5254e+07 4.5254e+07 -0.00%     -    0s

Explored 0 nodes (11 simplex iterations) in 0.19 seconds
Thread count was 4 (of 4 available processors)

Solution count 1: 4.5254e+07 

Optimal solution found (tolerance 1.00e-04)
Best objective 4.525400200000e+07, best bound 4.525400200000e+07, gap 0.0000%
Optimize a model with 16 rows, 64 columns and 128 nonzeros
Variable types: 0 continuous, 64 integer (64 binary)
Coefficient statistics:
  Matrix range     [1e+00, 1e+00]
  Objective range  [1e+02, 1e+07]
  Bounds range     [1e+00, 1e+00]
  RHS range        [1e+00, 1e+00]
Found heuristic solution: objective 1.500095e+07
Presolve time: 0.00s
Presolved: 16 rows, 64 columns, 128 nonzeros
Variable types: 0 continuous, 64 integer (64 binary)

Root relaxation: objective 2.000090e+07, 25 iterations, 0.00 seconds

    Nodes    |    Current Node    |     Objective Bounds      |     Work
 Expl Unexpl |  Obj  Depth IntInf | Incumbent    BestBd   Gap | It/Node Time

*    0     0               0    2.000090e+07 2.0001e+07 -0.00%     -    0s

Explored 0 nodes (25 simplex iterations) in 0.21 seconds
Thread count was 4 (of 4 available processors)

Solution count 2: 2.00009e+07 1.5001e+07 

Optimal solution found (tolerance 1.00e-04)
Best objective 2.000090000000e+07, best bound 2.000090000000e+07, gap 0.0000%

Gurobi 7.5.2 (mac64, Python) logging started Sat Oct 27 18:01:39 2018

Academic license - for non-commercial use only
Optimize a model with 14 rows, 49 columns and 98 nonzeros
Variable types: 0 continuous, 49 integer (49 binary)
Coefficient statistics:
  Matrix range     [1e+00, 1e+00]
  Objective range  [2e+00, 1e+03]
  Bounds range     [1e+00, 1e+00]
  RHS range        [1e+00, 1e+00]
Found heuristic solution: objective 3002.0000000
Presolve time: 0.01s
Presolved: 14 rows, 49 columns, 98 nonzeros
Variable types: 0 continuous, 49 integer (49 binary)

Root relaxation: cutoff, 10 iterations, 0.00 seconds

    Nodes    |    Current Node    |     Objective Bounds      |     Work
 Expl Unexpl |  Obj  Depth IntInf | Incumbent    BestBd   Gap | It/Node Time

     0     0     cutoff    0      3002.00000 3002.00000  0.00%     -    0s

Explored 0 nodes (10 simplex iterations) in 0.08 seconds
Thread count was 4 (of 4 available processors)

Solution count 1: 3002 

Optimal solution found (tolerance 1.00e-04)
Best objective 3.002000000000e+03, best bound 3.002000000000e+03, gap 0.0000%
Optimize a model with 14 rows, 49 columns and 98 nonzeros
Variable types: 0 continuous, 49 integer (49 binary)
Coefficient statistics:
  Matrix range     [1e+00, 1e+00]
  Objective range  [1e+02, 2e+03]
  Bounds range     [1e+00, 1e+00]
  RHS range        [1e+00, 1e+00]
Found heuristic solution: objective 4700.0000000
Presolve time: 0.00s
Presolved: 14 rows, 49 columns, 98 nonzeros
Variable types: 0 continuous, 49 integer (49 binary)

Root relaxation: objective 6.500000e+03, 27 iterations, 0.00 seconds

    Nodes    |    Current Node    |     Objective Bounds      |     Work
 Expl Unexpl |  Obj  Depth IntInf | Incumbent    BestBd   Gap | It/Node Time

*    0     0               0    6500.0000000 6500.00000  0.00%     -    0s

Explored 0 nodes (27 simplex iterations) in 0.11 seconds
Thread count was 4 (of 4 available processors)

Solution count 2: 6500 4700 

Optimal solution found (tolerance 1.00e-04)
Best objective 6.500000000000e+03, best bound 6.500000000000e+03, gap 0.0000%
Optimize a model with 21 rows, 49 columns and 105 nonzeros
Variable types: 0 continuous, 49 integer (49 binary)
Coefficient statistics:
  Matrix range     [1e+00, 1e+00]
  Objective range  [2e+00, 1e+03]
  Bounds range     [1e+00, 1e+00]
  RHS range        [1e+00, 1e+00]
Found heuristic solution: objective 2111.0000000
Presolve removed 9 rows and 13 columns
Presolve time: 0.00s
Presolved: 12 rows, 36 columns, 72 nonzeros
Variable types: 0 continuous, 36 integer (36 binary)

Root relaxation: cutoff, 6 iterations, 0.00 seconds

    Nodes    |    Current Node    |     Objective Bounds      |     Work
 Expl Unexpl |  Obj  Depth IntInf | Incumbent    BestBd   Gap | It/Node Time

     0     0     cutoff    0      2111.00000 2111.00000  0.00%     -    0s

Explored 0 nodes (6 simplex iterations) in 0.06 seconds
Thread count was 4 (of 4 available processors)

Solution count 1: 2111 

Optimal solution found (tolerance 1.00e-04)
Best objective 2.111000000000e+03, best bound 2.111000000000e+03, gap 0.0000%
Optimize a model with 14 rows, 49 columns and 98 nonzeros
Variable types: 0 continuous, 49 integer (49 binary)
Coefficient statistics:
  Matrix range     [1e+00, 1e+00]
  Objective range  [1e+02, 2e+03]
  Bounds range     [1e+00, 1e+00]
  RHS range        [1e+00, 1e+00]
Found heuristic solution: objective 4700.0000000
Presolve time: 0.00s
Presolved: 14 rows, 49 columns, 98 nonzeros
Variable types: 0 continuous, 49 integer (49 binary)

Root relaxation: objective 6.500000e+03, 27 iterations, 0.00 seconds

    Nodes    |    Current Node    |     Objective Bounds      |     Work
 Expl Unexpl |  Obj  Depth IntInf | Incumbent    BestBd   Gap | It/Node Time

*    0     0               0    6500.0000000 6500.00000  0.00%     -    0s

Explored 0 nodes (27 simplex iterations) in 0.09 seconds
Thread count was 4 (of 4 available processors)

Solution count 2: 6500 4700 

Optimal solution found (tolerance 1.00e-04)
Best objective 6.500000000000e+03, best bound 6.500000000000e+03, gap 0.0000%
Optimize a model with 21 rows, 49 columns and 105 nonzeros
Variable types: 0 continuous, 49 integer (49 binary)
Coefficient statistics:
  Matrix range     [1e+00, 1e+00]
  Objective range  [2e+00, 1e+03]
  Bounds range     [1e+00, 1e+00]
  RHS range        [1e+00, 1e+00]
Found heuristic solution: objective 3911.0000000
Presolve removed 9 rows and 13 columns
Presolve time: 0.02s
Presolved: 12 rows, 36 columns, 72 nonzeros
Variable types: 0 continuous, 36 integer (36 binary)

Root relaxation: cutoff, 9 iterations, 0.01 seconds

    Nodes    |    Current Node    |     Objective Bounds      |     Work
 Expl Unexpl |  Obj  Depth IntInf | Incumbent    BestBd   Gap | It/Node Time

     0     0     cutoff    0      3911.00000 3911.00000  0.00%     -    0s

Explored 0 nodes (9 simplex iterations) in 0.22 seconds
Thread count was 4 (of 4 available processors)

Solution count 1: 3911 

Optimal solution found (tolerance 1.00e-04)
Best objective 3.911000000000e+03, best bound 3.911000000000e+03, gap 0.0000%
Optimize a model with 14 rows, 49 columns and 98 nonzeros
Variable types: 0 continuous, 49 integer (49 binary)
Coefficient statistics:
  Matrix range     [1e+00, 1e+00]
  Objective range  [1e+02, 1e+05]
  Bounds range     [1e+00, 1e+00]
  RHS range        [1e+00, 1e+00]
Found heuristic solution: objective 352100.00000
Presolve time: 0.00s
Presolved: 14 rows, 49 columns, 98 nonzeros
Variable types: 0 continuous, 49 integer (49 binary)

Root relaxation: objective 4.520000e+05, 15 iterations, 0.00 seconds

    Nodes    |    Current Node    |     Objective Bounds      |     Work
 Expl Unexpl |  Obj  Depth IntInf | Incumbent    BestBd   Gap | It/Node Time

*    0     0               0    452000.00000 452000.000  0.00%     -    0s

Explored 0 nodes (15 simplex iterations) in 0.13 seconds
Thread count was 4 (of 4 available processors)

Solution count 2: 452000 352100 

Optimal solution found (tolerance 1.00e-04)
Best objective 4.520000000000e+05, best bound 4.520000000000e+05, gap 0.0000%

Gurobi 7.5.2 (mac64, Python) logging started Sun Oct 28 14:40:08 2018

Academic license - for non-commercial use only
Optimize a model with 21 rows, 49 columns and 105 nonzeros
Variable types: 0 continuous, 49 integer (49 binary)
Coefficient statistics:
  Matrix range     [1e+00, 1e+00]
  Objective range  [2e+00, 5e+04]
  Bounds range     [1e+00, 1e+00]
  RHS range        [1e+00, 1e+00]
Found heuristic solution: objective 5301.0000000
Presolve removed 9 rows and 13 columns
Presolve time: 0.01s
Presolved: 12 rows, 36 columns, 72 nonzeros
Variable types: 0 continuous, 36 integer (36 binary)

Root relaxation: cutoff, 8 iterations, 0.00 seconds

    Nodes    |    Current Node    |     Objective Bounds      |     Work
 Expl Unexpl |  Obj  Depth IntInf | Incumbent    BestBd   Gap | It/Node Time

     0     0     cutoff    0      5301.00000 5301.00000  0.00%     -    0s

Explored 0 nodes (8 simplex iterations) in 0.11 seconds
Thread count was 4 (of 4 available processors)

Solution count 1: 5301 

Optimal solution found (tolerance 1.00e-04)
Best objective 5.301000000000e+03, best bound 5.301000000000e+03, gap 0.0000%
Optimize a model with 14 rows, 49 columns and 98 nonzeros
Variable types: 0 continuous, 49 integer (49 binary)
Coefficient statistics:
  Matrix range     [1e+00, 1e+00]
  Objective range  [1e+02, 5e+05]
  Bounds range     [1e+00, 1e+00]
  RHS range        [1e+00, 1e+00]
Found heuristic solution: objective 679700.00000
Presolve time: 0.00s
Presolved: 14 rows, 49 columns, 98 nonzeros
Variable types: 0 continuous, 49 integer (49 binary)

Root relaxation: objective 7.287000e+05, 20 iterations, 0.00 seconds

    Nodes    |    Current Node    |     Objective Bounds      |     Work
 Expl Unexpl |  Obj  Depth IntInf | Incumbent    BestBd   Gap | It/Node Time

*    0     0               0    728700.00000 728700.000  0.00%     -    0s

Explored 0 nodes (20 simplex iterations) in 0.06 seconds
Thread count was 4 (of 4 available processors)

Solution count 2: 728700 679700 

Optimal solution found (tolerance 1.00e-04)
Best objective 7.287000000000e+05, best bound 7.287000000000e+05, gap 0.0000%
